Maximize

x_0 + x_1 + x_2


Subject To


z0:  - x_0 + 0 x$_0_0  + 2 x$_0_1  + 3 x$_0_2 = 0
z1:  - x_1 + 0 x$_1_0  + 2 x$_1_1  + 3 x$_1_2 = 0
z2:  - x_2 + 0 x$_2_0  + 2 x$_2_1  + 3 x$_2_2 = 0
z3: x$_0_0  + x$_0_1  + x$_0_2 = 1
z4: x$_1_0  + x$_1_1  + x$_1_2 = 1
z5: x$_2_0  + x$_2_1  + x$_2_2 = 1
z6: x$_0_0  + x$_1_0  + x$_2_0 = 1
z7: x$_0_1  + x$_1_1  + x$_2_1 = 1
z8: x$_0_2  + x$_1_2  + x$_2_2 = 1
z9: - z$0 + -1 x_0 + -1 x_1  = -4


Bounds

x_0 <= 100
x_1 <= 100
x_2 <= 100
x_3 <= 100
x_4 <= 100
z$0 free


Binary

x$_0_0 x$_0_1 x$_0_2 x$_1_0 x$_1_1 x$_1_2 x$_2_0 x$_2_1 x$_2_2


General

 x_0 x_1 x_2 x_3 x_4



General Constraints


gc0: x_3 = ABS ( z$0 )
gc1: x_4 = MAX ( x_0 , x_1 , x_2 )

End
